AME : levi30_18
COMMENT : 30: 36x20 -city problem (levikoppenhol)
TYPE : TSP
DIMENSION : 30
EDGE_WEIGHT_TYPE : EUC_2D
NODE_COORD_SECTION
1 14 2
2 3 21
3 7 24
4 6 20
5 10 27
6 17 34
7 3 36
8 8 32
9 7 6
10 14 3
11 9 29
12 1 31
13 1 16
14 10 14
15 4 8
16 15 16
17 11 32
18 16 36
19 1 3
20 11 17
21 18 8
22 1 21
23 5 4
24 6 32
25 13 22
26 2 36
27 14 20
28 1 32
29 19 25
30 19 14
EOF